# Relaxation

# Global Parameters
System = Mg
LCHARG = .FALSE.
LWAVE  = .FALSE.
ISTART = 0                 ! new calculation
ICHARG = 2                 ! initial charge density
PREC   = Accurate
ADDGRID= .TRUE.
NCORE  = 2


# Electronic Optimization
ALGO   = Normal
ENCUT  = 260               ! 1.3*ENMAX
EDIFF  = 1e-8              ! global break condition for the electronic SC-loop
ISMEAR = 1                 ! M-P BZ integration method
SIGMA  = 0.1               ! width of the smearing                
ISYM   = 2                 ! symmetrization of the charge density 

# Ionic Relaxation
NSW    = 20                ! number of ionic steps 
IBRION = 2                 ! CG relaxation algorithm
POTIM  = 0.5               ! step width in ionic relaxations 
ISIF   = 3                 ! relaxating atoms, cell shape and cell volume
EDIFFG = -0.0001           ! break condition for the ionic relaxation loop








