Mg1
1.0
        3.1859402657         0.0000000000         0.0000000000
        1.5929701328         2.7591052050         0.0000000000
        1.5929701328         0.9197017350         2.6013093339
   Mg
    1
Direct
     0.000000000         0.000000000         0.000000000
